200
100
100
100
99
99
99
99
99
98
97
97
96
96
96
96
95
95
94
94
94
94
93
93
93
91
91
91
91
91
90
90
90
90
90
90
90
89
89
89
89
89
88
88
88
87
86
86
86
85
85
85
84
84
84
84
83
83
83
81
81
80
80
80
80
80
79
79
78
78
77
77
76
76
75
75
75
74
73
73
72
71
71
70
70
70
70
69
68
68
67
67
67
65
65
65
64
64
62
62
62
62
61
61
60
60
59
59
58
58
58
57
57
57
57
56
56
55
55
55
54
54
52
51
50
50
49
48
48
48
48
47
47
46
45
45
43
43
43
42
42
41
41
41
40
40
40
40
39
39
38
38
38
37
37
36
35
35
35
35
34
34
34
34
33
33
32
32
32
31
31
30
30
30
30
28
28
28
27
27
27
26
26
26
26
25
25
25
25
25
25
24
24
24
24
24
23
22
20
20
20
20
